set VV := 0 1 2 3 4 ;
set VS := 0 1 2 3 4 5 6 7 8 9 10 11 12 13 ;
param cv := 
0 13
1 16
2 21
3 10
4 20
;
param cs := 
0 38
1 22
2 37
3 31
4 38
5 40
6 34
7 37
8 33
9 37
10 29
11 27
12 29
13 37
;
param bv:	 0 1 2 3 4 := 
		0 0 16 0 22 22 
		1 0 0 0 0 0 
		2 0 0 0 15 23 
		3 0 0 0 0 0 
		4 0 0 0 0 0 
;
param bs:	 0 1 2 3 4 5 6 7 8 9 10 11 12 13 := 
		0 0 0 0 0 0 0 0 0 0 38 0 0 0 0 
		1 0 0 0 0 0 0 21 0 0 0 0 0 0 0 
		2 0 0 0 0 0 32 0 0 0 33 0 0 0 0 
		3 0 0 0 0 28 0 25 0 0 0 0 0 0 0 
		4 0 0 0 28 0 0 35 0 0 33 0 34 0 0 
		5 0 0 32 0 0 0 34 0 0 0 0 0 31 40 
		6 0 21 0 25 35 34 0 0 0 0 0 0 0 40 
		7 0 0 0 0 0 0 0 0 0 0 0 0 0 40 
		8 0 0 0 0 0 0 0 0 0 0 0 21 23 0 
		9 38 0 33 0 33 0 0 0 0 0 39 0 0 0 
		10 0 0 0 0 0 0 0 0 0 39 0 0 0 0 
		11 0 0 0 0 34 0 0 0 21 0 0 0 0 30 
		12 0 0 0 0 0 31 0 0 23 0 0 0 0 0 
		13 0 0 0 0 0 40 40 40 0 0 0 30 0 0 
;
